\ Model assignment
\ LP format - for model browsing. Use MPS format to capture full model detail.
Maximize
  1.1285773607732795e+30 x[1,33,5,33,48]
   + 1.1285773607732795e+30 x[1,33,5,33,34]
   + 1.1285773607732795e+30 x[1,33,5,33,25]
   + 1.1285773607732795e+30 x[1,33,5,33,50]
   + 1.1285773607732795e+30 x[1,33,5,33,16]
   + 1.1285773607732795e+30 x[1,33,5,33,27]
   + 1.5164222641854007e+30 x[1,33,5,33,33]
   + 1.1285773607732795e+30 x[1,33,5,33,40]
   + 1.1285773607732795e+30 x[1,33,5,33,18]
   + 1.1285773607732795e+30 x[1,33,5,33,49]
   + 1.1285773607732795e+30 x[1,33,5,33,35]
   + 1.1285773607732795e+30 x[1,33,5,33,42]
   + 1.5164222641854007e+30 x[0,33,5,33,33]
   + 1.1285773607732795e+30 x[1,33,5,33,51]
   + 1.1285773607732795e+30 x[1,33,5,33,17]
   + 1.1285773607732795e+30 x[1,33,5,33,24]
   + 1.1285773607732795e+30 x[1,33,5,33,41]
   + 1.1285773607732795e+30 x[1,33,5,33,19]
   + 1.1285773607732795e+30 x[1,33,5,33,26]
   + 1.1285773607732795e+30 x[1,33,5,33,32]
   + 1.1285773607732795e+30 x[1,33,5,33,43]
Subject To
 CAR_FLOW[33,5]: x[1,33,5,33,48] + x[1,33,5,33,34] + x[1,33,5,33,25]
   + x[1,33,5,33,50] + x[1,33,5,33,16] + x[1,33,5,33,27] + x[1,33,5,33,33]
   + x[1,33,5,33,40] + x[1,33,5,33,18] + x[1,33,5,33,49] + x[1,33,5,33,35]
   + x[1,33,5,33,42] + x[0,33,5,33,33] + x[1,33,5,33,51] + x[1,33,5,33,17]
   + x[1,33,5,33,24] + x[1,33,5,33,41] + x[1,33,5,33,19] + x[1,33,5,33,26]
   + x[1,33,5,33,32] + x[1,33,5,33,43] = 1
Bounds
End
